p cnf 116 819
31 89 2 60 0
31 89 30 88 0
31 89 6 64 0
2 60 30 88 0
2 60 6 64 0
30 88 6 64 0
-31 -2 -30 -6 0
-31 -2 -30 -64 0
-31 -2 -88 -6 0
-31 -2 -88 -64 0
-31 -60 -30 -6 0
-31 -60 -30 -64 0
-31 -60 -88 -6 0
-31 -60 -88 -64 0
-89 -2 -30 -6 0
-89 -2 -30 -64 0
-89 -2 -88 -6 0
-89 -2 -88 -64 0
-89 -60 -30 -6 0
-89 -60 -30 -64 0
-89 -60 -88 -6 0
-89 -60 -88 -64 0
32 90 3 61 31 89 0
32 90 3 61 7 65 0
32 90 31 89 7 65 0
3 61 31 89 7 65 0
-32 -3 -31 0
-90 -3 -31 0
-32 -3 -89 0
-90 -3 -89 0
-32 -61 -31 0
-90 -61 -31 0
-32 -61 -89 0
-90 -61 -89 0
-32 -3 -7 0
-90 -3 -7 0
-32 -3 -65 0
-90 -3 -65 0
-32 -61 -7 0
-90 -61 -7 0
-32 -61 -65 0
-90 -61 -65 0
-32 -31 -7 0
-90 -31 -7 0
-32 -31 -65 0
-90 -31 -65 0
-32 -89 -7 0
-90 -89 -7 0
-32 -89 -65 0
-90 -89 -65 0
-3 -31 -7 0
-61 -31 -7 0
-3 -31 -65 0
-61 -31 -65 0
-3 -89 -7 0
-61 -89 -7 0
-3 -89 -65 0
-61 -89 -65 0
-62 0
-4 0
-66 0
-8 0
-90 0
-32 0
-91 0
-33 0
37 95 7 65 36 94 0
37 95 7 65 11 69 0
37 95 36 94 11 69 0
7 65 36 94 11 69 0
-37 -7 -36 0
-95 -7 -36 0
-37 -7 -94 0
-95 -7 -94 0
-37 -65 -36 0
-95 -65 -36 0
-37 -65 -94 0
-95 -65 -94 0
-37 -7 -11 0
-95 -7 -11 0
-37 -7 -69 0
-95 -7 -69 0
-37 -65 -11 0
-95 -65 -11 0
-37 -65 -69 0
-95 -65 -69 0
-37 -36 -11 0
-95 -36 -11 0
-37 -36 -69 0
-95 -36 -69 0
-37 -94 -11 0
-95 -94 -11 0
-37 -94 -69 0
-95 -94 -69 0
-7 -36 -11 0
-65 -36 -11 0
-7 -36 -69 0
-65 -36 -69 0
-7 -94 -11 0
-65 -94 -11 0
-7 -94 -69 0
-65 -94 -69 0
40 98 9 67 39 97 0
40 98 9 67 13 71 0
40 98 39 97 13 71 0
9 67 39 97 13 71 0
-40 -9 -39 0
-98 -9 -39 0
-40 -9 -97 0
-98 -9 -97 0
-40 -67 -39 0
-98 -67 -39 0
-40 -67 -97 0
-98 -67 -97 0
-40 -9 -13 0
-98 -9 -13 0
-40 -9 -71 0
-98 -9 -71 0
-40 -67 -13 0
-98 -67 -13 0
-40 -67 -71 0
-98 -67 -71 0
-40 -39 -13 0
-98 -39 -13 0
-40 -39 -71 0
-98 -39 -71 0
-40 -97 -13 0
-98 -97 -13 0
-40 -97 -71 0
-98 -97 -71 0
-9 -39 -13 0
-67 -39 -13 0
-9 -39 -71 0
-67 -39 -71 0
-9 -97 -13 0
-67 -97 -13 0
-9 -97 -71 0
-67 -97 -71 0
42 100 11 69 41 99 0
42 100 11 69 15 73 0
42 100 41 99 15 73 0
11 69 41 99 15 73 0
-42 -11 -41 0
-100 -11 -41 0
-42 -11 -99 0
-100 -11 -99 0
-42 -69 -41 0
-100 -69 -41 0
-42 -69 -99 0
-100 -69 -99 0
-42 -11 -15 0
-100 -11 -15 0
-42 -11 -73 0
-100 -11 -73 0
-42 -69 -15 0
-100 -69 -15 0
-42 -69 -73 0
-100 -69 -73 0
-42 -41 -15 0
-100 -41 -15 0
-42 -41 -73 0
-100 -41 -73 0
-42 -99 -15 0
-100 -99 -15 0
-42 -99 -73 0
-100 -99 -73 0
-11 -41 -15 0
-69 -41 -15 0
-11 -41 -73 0
-69 -41 -73 0
-11 -99 -15 0
-69 -99 -15 0
-11 -99 -73 0
-69 -99 -73 0
-76 0
-18 0
-80 0
-22 0
-108 0
-50 0
-109 0
-51 0
77 19 81 23 109 51 110 52 0
-52 -19 0
-52 -77 0
-110 -19 0
-110 -77 0
-52 -51 0
-52 -109 0
-110 -51 0
-110 -109 0
-52 -23 0
-52 -81 0
-110 -23 0
-110 -81 0
-19 -51 0
-52 -19 0
-52 -19 0
-52 -19 0
-19 -23 0
-19 -81 0
-77 -23 0
-77 -81 0
-51 -23 0
-51 -81 0
-109 -23 0
-109 -81 0
53 111 20 78 52 110 0
53 111 20 78 24 82 0
53 111 52 110 24 82 0
20 78 52 110 24 82 0
-53 -20 -52 0
-111 -20 -52 0
-53 -20 -110 0
-111 -20 -110 0
-53 -78 -52 0
-111 -78 -52 0
-53 -78 -110 0
-111 -78 -110 0
-53 -20 -24 0
-111 -20 -24 0
-53 -20 -82 0
-111 -20 -82 0
-53 -78 -24 0
-111 -78 -24 0
-53 -78 -82 0
-111 -78 -82 0
-53 -52 -24 0
-111 -52 -24 0
-53 -52 -82 0
-111 -52 -82 0
-53 -110 -24 0
-111 -110 -24 0
-53 -110 -82 0
-111 -110 -82 0
-20 -52 -24 0
-78 -52 -24 0
-20 -52 -82 0
-78 -52 -82 0
-20 -110 -24 0
-78 -110 -24 0
-20 -110 -82 0
-78 -110 -82 0
56 114 22 80 0
56 114 55 113 0
56 114 26 84 0
22 80 55 113 0
22 80 26 84 0
55 113 26 84 0
-56 -22 -55 -26 0
-56 -22 -55 -84 0
-56 -22 -113 -26 0
-56 -22 -113 -84 0
-56 -80 -55 -26 0
-56 -80 -55 -84 0
-56 -80 -113 -26 0
-56 -80 -113 -84 0
-114 -22 -55 -26 0
-114 -22 -55 -84 0
-114 -22 -113 -26 0
-114 -22 -113 -84 0
-114 -80 -55 -26 0
-114 -80 -55 -84 0
-114 -80 -113 -26 0
-114 -80 -113 -84 0
57 115 23 81 56 114 0
57 115 23 81 27 85 0
57 115 56 114 27 85 0
23 81 56 114 27 85 0
-57 -23 -56 0
-115 -23 -56 0
-57 -23 -114 0
-115 -23 -114 0
-57 -81 -56 0
-115 -81 -56 0
-57 -81 -114 0
-115 -81 -114 0
-57 -23 -27 0
-115 -23 -27 0
-57 -23 -85 0
-115 -23 -85 0
-57 -81 -27 0
-115 -81 -27 0
-57 -81 -85 0
-115 -81 -85 0
-57 -56 -27 0
-115 -56 -27 0
-57 -56 -85 0
-115 -56 -85 0
-57 -114 -27 0
-115 -114 -27 0
-57 -114 -85 0
-115 -114 -85 0
-23 -56 -27 0
-81 -56 -27 0
-23 -56 -85 0
-81 -56 -85 0
-23 -114 -27 0
-81 -114 -27 0
-23 -114 -85 0
-81 -114 -85 0
-59 -87 0
-1 -29 0
-59 -1 0
-87 -29 0
-87 1 0
-59 29 0
-60 -88 0
-60 -1 0
-88 -1 0
-2 -30 0
-2 -59 0
-30 -59 0
-60 -2 0
-88 -30 0
-1 -59 0
-1 2 30 0
-88 2 59 0
-60 59 30 0
-61 -89 0
-61 -2 0
-89 -2 0
-3 -31 0
-3 -60 0
-31 -60 0
-61 -3 0
-89 -31 0
-2 -60 0
-2 3 31 0
-89 3 60 0
-61 60 31 0
-62 -90 0
-62 -3 0
-90 -3 0
-4 -32 0
-4 -61 0
-32 -61 0
-62 -4 0
-90 -32 0
-3 -61 0
-3 4 32 0
-90 4 61 0
-62 61 32 0
-91 -4 0
-33 -62 0
-91 -33 0
-4 -62 0
-4 33 0
-91 62 0
-29 -63 0
-29 -92 0
-63 -92 0
-87 -5 0
-87 -34 0
-5 -34 0
-29 -87 0
-63 -5 0
-92 -34 0
-63 87 34 0
-92 87 5 0
-29 5 34 0
-30 -64 0
-30 -93 0
-30 -5 0
-64 -93 0
-64 -5 0
-93 -5 0
-88 -6 0
-88 -35 0
-88 -63 0
-6 -35 0
-6 -63 0
-35 -63 0
-30 -88 0
-64 -6 0
-93 -35 0
-5 -63 0
-30 6 35 63 0
-64 88 35 63 0
-93 88 6 63 0
-5 88 6 35 0
-31 -65 0
-31 -94 0
-31 -6 0
-65 -94 0
-65 -6 0
-94 -6 0
-89 -7 0
-89 -36 0
-89 -64 0
-7 -36 0
-7 -64 0
-36 -64 0
-31 -89 0
-65 -7 0
-94 -36 0
-6 -64 0
-31 7 36 64 0
-65 89 36 64 0
-94 89 7 64 0
-6 89 7 36 0
-32 -66 0
-32 -95 0
-32 -7 0
-66 -95 0
-66 -7 0
-95 -7 0
-90 -8 0
-90 -37 0
-90 -65 0
-8 -37 0
-8 -65 0
-37 -65 0
-32 -90 0
-66 -8 0
-95 -37 0
-7 -65 0
-32 8 37 65 0
-66 90 37 65 0
-95 90 8 65 0
-7 90 8 37 0
-33 -96 0
-33 -8 0
-96 -8 0
-91 -38 0
-91 -66 0
-38 -66 0
-33 -91 0
-96 -38 0
-8 -66 0
-8 91 38 0
-33 66 38 0
-96 91 66 0
-34 -67 0
-34 -97 0
-67 -97 0
-92 -9 0
-92 -39 0
-9 -39 0
-34 -92 0
-67 -9 0
-97 -39 0
-67 92 39 0
-97 92 9 0
-34 9 39 0
-35 -68 0
-35 -98 0
-35 -9 0
-68 -98 0
-68 -9 0
-98 -9 0
-93 -10 0
-93 -40 0
-93 -67 0
-10 -40 0
-10 -67 0
-40 -67 0
-35 -93 0
-68 -10 0
-98 -40 0
-9 -67 0
-35 10 40 67 0
-68 93 40 67 0
-98 93 10 67 0
-9 93 10 40 0
-36 -69 0
-36 -99 0
-36 -10 0
-69 -99 0
-69 -10 0
-99 -10 0
-94 -11 0
-94 -41 0
-94 -68 0
-11 -41 0
-11 -68 0
-41 -68 0
-36 -94 0
-69 -11 0
-99 -41 0
-10 -68 0
-36 11 41 68 0
-69 94 41 68 0
-99 94 11 68 0
-10 94 11 41 0
-37 -70 0
-37 -100 0
-37 -11 0
-70 -100 0
-70 -11 0
-100 -11 0
-95 -12 0
-95 -42 0
-95 -69 0
-12 -42 0
-12 -69 0
-42 -69 0
-37 -95 0
-70 -12 0
-100 -42 0
-11 -69 0
-37 12 42 69 0
-70 95 42 69 0
-100 95 12 69 0
-11 95 12 42 0
-38 -101 0
-38 -12 0
-101 -12 0
-96 -43 0
-96 -70 0
-43 -70 0
-38 -96 0
-101 -43 0
-12 -70 0
-12 96 43 0
-38 70 43 0
-101 96 70 0
-39 -71 0
-39 -102 0
-71 -102 0
-97 -13 0
-97 -44 0
-13 -44 0
-39 -97 0
-71 -13 0
-102 -44 0
-71 97 44 0
-102 97 13 0
-39 13 44 0
-40 -72 0
-40 -103 0
-40 -13 0
-72 -103 0
-72 -13 0
-103 -13 0
-98 -14 0
-98 -45 0
-98 -71 0
-14 -45 0
-14 -71 0
-45 -71 0
-40 -98 0
-72 -14 0
-103 -45 0
-13 -71 0
-40 14 45 71 0
-72 98 45 71 0
-103 98 14 71 0
-13 98 14 45 0
-41 -73 0
-41 -104 0
-41 -14 0
-73 -104 0
-73 -14 0
-104 -14 0
-99 -15 0
-99 -46 0
-99 -72 0
-15 -46 0
-15 -72 0
-46 -72 0
-41 -99 0
-73 -15 0
-104 -46 0
-14 -72 0
-41 15 46 72 0
-73 99 46 72 0
-104 99 15 72 0
-14 99 15 46 0
-42 -74 0
-42 -105 0
-42 -15 0
-74 -105 0
-74 -15 0
-105 -15 0
-100 -16 0
-100 -47 0
-100 -73 0
-16 -47 0
-16 -73 0
-47 -73 0
-42 -100 0
-74 -16 0
-105 -47 0
-15 -73 0
-42 16 47 73 0
-74 100 47 73 0
-105 100 16 73 0
-15 100 16 47 0
-43 -106 0
-43 -16 0
-106 -16 0
-101 -48 0
-101 -74 0
-48 -74 0
-43 -101 0
-106 -48 0
-16 -74 0
-16 101 48 0
-43 74 48 0
-106 101 74 0
-44 -75 0
-44 -107 0
-75 -107 0
-102 -17 0
-102 -49 0
-17 -49 0
-44 -102 0
-75 -17 0
-107 -49 0
-75 102 49 0
-107 102 17 0
-44 17 49 0
-45 -76 0
-45 -108 0
-45 -17 0
-76 -108 0
-76 -17 0
-108 -17 0
-103 -18 0
-103 -50 0
-103 -75 0
-18 -50 0
-18 -75 0
-50 -75 0
-45 -103 0
-76 -18 0
-108 -50 0
-17 -75 0
-45 18 50 75 0
-76 103 50 75 0
-108 103 18 75 0
-17 103 18 50 0
-46 -77 0
-46 -109 0
-46 -18 0
-77 -109 0
-77 -18 0
-109 -18 0
-104 -19 0
-104 -51 0
-104 -76 0
-19 -51 0
-19 -76 0
-51 -76 0
-46 -104 0
-77 -19 0
-109 -51 0
-18 -76 0
-46 19 51 76 0
-77 104 51 76 0
-109 104 19 76 0
-18 104 19 51 0
-47 -78 0
-47 -110 0
-47 -19 0
-78 -110 0
-78 -19 0
-110 -19 0
-105 -20 0
-105 -52 0
-105 -77 0
-20 -52 0
-20 -77 0
-52 -77 0
-47 -105 0
-78 -20 0
-110 -52 0
-19 -77 0
-47 20 52 77 0
-78 105 52 77 0
-110 105 20 77 0
-19 105 20 52 0
-48 -111 0
-48 -20 0
-111 -20 0
-106 -53 0
-106 -78 0
-53 -78 0
-48 -106 0
-111 -53 0
-20 -78 0
-20 106 53 0
-48 78 53 0
-111 106 78 0
-49 -79 0
-49 -112 0
-79 -112 0
-107 -21 0
-107 -54 0
-21 -54 0
-49 -107 0
-79 -21 0
-112 -54 0
-79 107 54 0
-112 107 21 0
-49 21 54 0
-50 -80 0
-50 -113 0
-50 -21 0
-80 -113 0
-80 -21 0
-113 -21 0
-108 -22 0
-108 -55 0
-108 -79 0
-22 -55 0
-22 -79 0
-55 -79 0
-50 -108 0
-80 -22 0
-113 -55 0
-21 -79 0
-50 22 55 79 0
-80 108 55 79 0
-113 108 22 79 0
-21 108 22 55 0
-51 -81 0
-51 -114 0
-51 -22 0
-81 -114 0
-81 -22 0
-114 -22 0
-109 -23 0
-109 -56 0
-109 -80 0
-23 -56 0
-23 -80 0
-56 -80 0
-51 -109 0
-81 -23 0
-114 -56 0
-22 -80 0
-51 23 56 80 0
-81 109 56 80 0
-114 109 23 80 0
-22 109 23 56 0
-52 -82 0
-52 -115 0
-52 -23 0
-82 -115 0
-82 -23 0
-115 -23 0
-110 -24 0
-110 -57 0
-110 -81 0
-24 -57 0
-24 -81 0
-57 -81 0
-52 -110 0
-82 -24 0
-115 -57 0
-23 -81 0
-52 24 57 81 0
-82 110 57 81 0
-115 110 24 81 0
-23 110 24 57 0
-53 -116 0
-53 -24 0
-116 -24 0
-111 -58 0
-111 -82 0
-58 -82 0
-53 -111 0
-116 -58 0
-24 -82 0
-24 111 58 0
-53 82 58 0
-116 111 82 0
-54 -83 0
-112 -25 0
-54 -112 0
-83 -25 0
-83 112 0
-54 25 0
-55 -84 0
-55 -25 0
-84 -25 0
-113 -26 0
-113 -83 0
-26 -83 0
-55 -113 0
-84 -26 0
-25 -83 0
-84 113 83 0
-55 26 83 0
-25 26 113 0
-56 -85 0
-56 -26 0
-85 -26 0
-114 -27 0
-114 -84 0
-27 -84 0
-56 -114 0
-85 -27 0
-26 -84 0
-85 114 84 0
-56 27 84 0
-26 27 114 0
-57 -86 0
-57 -27 0
-86 -27 0
-115 -28 0
-115 -85 0
-28 -85 0
-57 -115 0
-86 -28 0
-27 -85 0
-86 115 85 0
-57 28 85 0
-27 28 115 0
-58 -28 0
-116 -86 0
-58 -116 0
-28 -86 0
-28 116 0
-58 86 0
1 -2 3 4 -5 6 -7 8 9 -10 11 12 13 14 15 -16 17 18 19 20 21 22 23 24 25 26 27 28 29 30 -31 32 33 34 35 36 -37 38 39 40 -41 -42 43 44 45 46 47 -48 49 50 51 52 -53 54 55 -56 57 58 59 60 61 62 63 64 65 66 67 68 69 70 71 -72 73 74 75 76 77 78 -79 80 -81 -82 83 -84 85 86 87 -88 89 90 91 -92 93 94 95 96 -97 -98 99 100 101 -102 103 104 105 106 -107 108 109 110 111 112 -113 114 115 116  0
1 -2 3 4 -5 6 -7 8 9 10 11 12 13 -14 15 -16 17 18 19 20 21 22 23 24 25 26 27 28 29 30 -31 32 33 34 35 36 -37 38 39 -40 41 -42 43 44 45 46 47 -48 49 50 51 52 -53 54 55 -56 57 58 59 60 61 62 63 64 65 66 67 -68 69 70 71 72 73 74 75 76 77 78 -79 80 -81 -82 83 -84 85 86 87 -88 89 90 91 -92 93 94 95 96 -97 98 -99 100 101 -102 103 104 105 106 -107 108 109 110 111 112 -113 114 115 116  0
